c File: data_files/evolved_graphs/g3848.col
c
c Auto generated graph
c
p edge 100 869
e 1 12
e 1 17
e 1 20
e 1 30
e 1 47
e 1 49
e 1 64
e 1 85
e 2 5
e 2 6
e 2 11
e 2 12
e 2 37
e 2 64
e 2 74
e 2 89
e 3 5
e 3 6
e 3 11
e 3 18
e 3 33
e 3 36
e 3 38
e 3 46
e 3 47
e 3 49
e 3 52
e 3 60
e 4 7
e 4 10
e 4 20
e 4 30
e 4 52
e 4 53
e 4 62
e 4 67
e 4 68
e 4 97
e 4 99
e 5 6
e 5 9
e 5 12
e 5 13
e 5 17
e 5 35
e 5 54
e 5 59
e 6 10
e 6 11
e 6 24
e 6 29
e 6 31
e 6 32
e 6 42
e 6 62
e 6 82
e 7 9
e 7 11
e 7 16
e 7 24
e 7 37
e 7 57
e 8 11
e 8 18
e 8 19
e 8 29
e 8 31
e 8 48
e 8 66
e 8 82
e 9 10
e 9 32
e 9 35
e 9 43
e 9 52
e 10 15
e 10 18
e 10 26
e 10 36
e 10 52
e 10 66
e 11 20
e 11 33
e 11 41
e 11 42
e 11 63
e 11 67
e 11 87
e 12 13
e 12 33
e 12 35
e 12 36
e 12 51
e 12 60
e 12 79
e 12 92
e 13 16
e 13 23
e 13 34
e 13 55
e 13 57
e 13 61
e 13 65
e 13 71
e 13 87
e 13 95
e 13 99
e 14 15
e 14 65
e 15 27
e 15 38
e 15 46
e 15 52
e 15 75
e 15 78
e 16 21
e 16 25
e 16 26
e 16 27
e 16 33
e 16 40
e 16 45
e 16 47
e 16 48
e 16 51
e 16 54
e 16 55
e 16 57
e 16 59
e 16 60
e 16 63
e 16 64
e 16 66
e 16 67
e 16 68
e 16 71
e 16 73
e 16 75
e 16 79
e 16 84
e 16 86
e 16 92
e 16 93
e 16 99
e 16 100
e 17 27
e 17 29
e 17 31
e 17 32
e 17 34
e 17 39
e 17 40
e 17 41
e 17 42
e 17 43
e 17 45
e 17 46
e 17 47
e 17 49
e 17 55
e 17 57
e 17 58
e 17 62
e 17 66
e 17 68
e 17 72
e 17 78
e 17 79
e 17 81
e 17 85
e 17 87
e 17 93
e 17 100
e 18 24
e 18 26
e 18 35
e 18 36
e 18 38
e 18 39
e 18 40
e 18 42
e 18 44
e 18 48
e 18 49
e 18 50
e 18 57
e 18 59
e 18 63
e 18 66
e 18 71
e 18 75
e 18 77
e 18 79
e 18 83
e 18 84
e 18 96
e 19 25
e 19 26
e 19 33
e 19 35
e 19 37
e 19 39
e 19 40
e 19 41
e 19 44
e 19 48
e 19 49
e 19 54
e 19 58
e 19 60
e 19 64
e 19 65
e 19 66
e 19 68
e 19 70
e 19 72
e 19 73
e 19 74
e 19 76
e 19 77
e 19 90
e 19 93
e 19 99
e 19 100
e 20 32
e 20 36
e 20 39
e 20 42
e 20 46
e 20 49
e 20 50
e 20 58
e 20 60
e 20 61
e 20 64
e 20 69
e 20 71
e 20 72
e 20 73
e 20 75
e 20 76
e 20 77
e 20 80
e 20 82
e 20 88
e 20 91
e 21 22
e 21 26
e 21 35
e 21 36
e 21 37
e 21 39
e 21 42
e 21 48
e 21 49
e 21 51
e 21 55
e 21 64
e 21 73
e 21 74
e 21 75
e 21 78
e 21 84
e 21 87
e 21 93
e 21 98
e 22 23
e 22 24
e 22 26
e 22 29
e 22 32
e 22 34
e 22 36
e 22 38
e 22 44
e 22 48
e 22 50
e 22 60
e 22 61
e 22 64
e 22 69
e 22 76
e 22 80
e 22 85
e 22 94
e 22 99
e 22 100
e 23 25
e 23 26
e 23 27
e 23 30
e 23 35
e 23 38
e 23 39
e 23 40
e 23 42
e 23 44
e 23 49
e 23 51
e 23 54
e 23 55
e 23 56
e 23 60
e 23 61
e 23 65
e 23 71
e 23 72
e 23 75
e 23 76
e 23 77
e 23 89
e 23 96
e 24 30
e 24 33
e 24 34
e 24 40
e 24 41
e 24 42
e 24 43
e 24 44
e 24 47
e 24 49
e 24 50
e 24 59
e 24 60
e 24 64
e 24 66
e 24 67
e 24 69
e 24 71
e 24 75
e 24 89
e 25 30
e 25 31
e 25 33
e 25 37
e 25 38
e 25 39
e 25 44
e 25 47
e 25 50
e 25 51
e 25 60
e 25 64
e 25 70
e 25 71
e 25 73
e 25 92
e 25 95
e 26 27
e 26 31
e 26 35
e 26 37
e 26 38
e 26 39
e 26 41
e 26 44
e 26 46
e 26 47
e 26 48
e 26 54
e 26 55
e 26 57
e 26 58
e 26 61
e 26 62
e 26 63
e 26 64
e 26 66
e 26 67
e 26 68
e 26 74
e 26 75
e 26 77
e 26 85
e 26 87
e 26 90
e 26 100
e 27 33
e 27 34
e 27 35
e 27 37
e 27 38
e 27 40
e 27 41
e 27 42
e 27 44
e 27 49
e 27 51
e 27 57
e 27 59
e 27 69
e 27 76
e 27 88
e 27 92
e 27 94
e 28 32
e 28 37
e 28 39
e 28 42
e 28 43
e 28 45
e 28 50
e 28 58
e 28 59
e 28 60
e 28 62
e 28 63
e 28 66
e 28 69
e 28 74
e 28 77
e 28 79
e 28 81
e 28 82
e 28 86
e 29 32
e 29 36
e 29 44
e 29 45
e 29 48
e 29 50
e 29 51
e 29 54
e 29 56
e 29 57
e 29 59
e 29 62
e 29 64
e 29 66
e 29 69
e 29 71
e 29 74
e 29 76
e 29 82
e 29 84
e 29 89
e 29 90
e 29 93
e 29 94
e 29 97
e 29 98
e 29 100
e 30 33
e 30 34
e 30 35
e 30 38
e 30 40
e 30 41
e 30 42
e 30 43
e 30 50
e 30 51
e 30 53
e 30 56
e 30 57
e 30 58
e 30 61
e 30 64
e 30 66
e 30 71
e 30 73
e 30 74
e 30 75
e 30 76
e 30 90
e 30 93
e 30 100
e 31 33
e 31 41
e 31 44
e 31 46
e 31 48
e 31 49
e 31 51
e 31 53
e 31 55
e 31 64
e 31 70
e 31 74
e 31 77
e 31 82
e 31 86
e 31 89
e 31 97
e 31 99
e 32 39
e 32 47
e 32 57
e 32 58
e 32 68
e 32 74
e 32 75
e 32 77
e 32 85
e 32 96
e 33 37
e 33 39
e 33 43
e 33 53
e 33 56
e 33 67
e 33 74
e 33 81
e 33 89
e 34 38
e 34 42
e 34 44
e 34 45
e 34 55
e 34 56
e 34 57
e 34 63
e 34 76
e 34 83
e 34 87
e 34 92
e 34 99
e 35 40
e 35 43
e 35 44
e 35 45
e 35 48
e 35 54
e 35 57
e 35 59
e 35 72
e 35 73
e 35 78
e 35 80
e 35 84
e 35 91
e 35 93
e 36 39
e 36 64
e 36 67
e 36 71
e 36 73
e 36 74
e 36 75
e 36 79
e 36 87
e 36 91
e 36 94
e 36 98
e 36 100
e 37 43
e 37 46
e 37 54
e 37 55
e 37 60
e 37 62
e 37 65
e 37 66
e 37 73
e 37 83
e 37 84
e 37 99
e 38 45
e 38 48
e 38 49
e 38 51
e 38 60
e 38 62
e 38 68
e 38 70
e 38 82
e 38 90
e 38 91
e 38 94
e 38 97
e 38 100
e 39 43
e 39 44
e 39 58
e 39 66
e 39 78
e 39 79
e 39 83
e 39 99
e 40 42
e 40 69
e 40 71
e 40 74
e 40 92
e 41 47
e 41 51
e 41 56
e 41 67
e 41 74
e 41 81
e 41 84
e 41 87
e 41 90
e 42 48
e 42 51
e 42 67
e 42 77
e 42 80
e 42 83
e 42 84
e 42 85
e 42 86
e 42 97
e 42 100
e 43 46
e 43 62
e 43 65
e 43 70
e 43 76
e 43 81
e 43 100
e 44 46
e 44 48
e 44 54
e 44 64
e 44 70
e 44 87
e 44 92
e 44 96
e 44 97
e 44 99
e 45 51
e 45 53
e 45 56
e 45 57
e 45 66
e 45 67
e 45 81
e 45 98
e 45 99
e 46 49
e 46 50
e 46 53
e 46 80
e 46 91
e 46 95
e 46 99
e 47 48
e 47 55
e 47 61
e 47 66
e 47 67
e 47 70
e 47 72
e 47 73
e 47 82
e 47 83
e 47 93
e 47 97
e 47 100
e 48 50
e 48 58
e 48 62
e 48 65
e 48 70
e 48 77
e 48 81
e 48 95
e 48 96
e 48 97
e 48 98
e 48 100
e 49 66
e 49 70
e 49 73
e 49 77
e 50 60
e 50 65
e 50 67
e 50 85
e 50 93
e 50 97
e 51 56
e 51 71
e 52 64
e 52 65
e 52 68
e 52 74
e 52 76
e 52 81
e 52 82
e 52 91
e 52 96
e 53 64
e 53 65
e 53 66
e 53 68
e 53 69
e 53 73
e 53 77
e 53 80
e 54 59
e 54 60
e 54 62
e 54 65
e 54 73
e 54 74
e 54 86
e 55 58
e 55 61
e 55 64
e 55 81
e 55 84
e 55 85
e 55 91
e 55 95
e 55 97
e 56 69
e 56 79
e 56 87
e 56 91
e 56 93
e 56 99
e 57 68
e 57 74
e 57 83
e 57 86
e 58 65
e 58 66
e 58 76
e 58 96
e 59 67
e 59 68
e 59 70
e 59 71
e 59 78
e 59 91
e 59 93
e 60 61
e 60 87
e 60 91
e 60 100
e 61 67
e 61 71
e 61 75
e 61 79
e 61 96
e 62 67
e 62 82
e 62 88
e 62 95
e 62 96
e 63 72
e 63 74
e 63 90
e 64 67
e 64 71
e 64 83
e 64 85
e 64 93
e 64 99
e 64 100
e 65 67
e 65 69
e 65 88
e 65 91
e 65 97
e 65 100
e 66 82
e 66 88
e 66 92
e 66 94
e 66 95
e 66 99
e 67 69
e 67 71
e 67 73
e 67 98
e 68 70
e 68 72
e 68 73
e 68 90
e 68 92
e 69 73
e 69 75
e 69 83
e 69 85
e 69 88
e 69 97
e 70 73
e 70 84
e 70 87
e 70 90
e 70 92
e 70 93
e 70 100
e 71 73
e 71 99
e 71 100
e 72 87
e 72 95
e 73 75
e 73 76
e 73 79
e 73 82
e 73 85
e 73 87
e 73 100
e 74 76
e 74 90
e 74 96
e 75 82
e 75 95
e 75 96
e 76 95
e 76 100
e 77 87
e 77 89
e 77 95
e 77 98
e 78 81
e 78 84
e 78 88
e 78 99
e 78 100
e 79 80
e 79 87
e 79 90
e 79 94
e 79 99
e 80 81
e 80 83
e 80 84
e 80 86
e 80 92
e 80 99
e 81 82
e 81 84
e 81 90
e 82 86
e 82 88
e 82 99
e 83 85
e 83 98
e 84 93
e 84 97
e 84 98
e 85 88
e 85 92
e 85 93
e 85 95
e 85 97
e 86 89
e 86 93
e 86 97
e 87 90
e 87 97
e 88 99
e 88 100
e 89 91
e 89 93
e 89 99
e 90 100
e 91 92
e 91 96
e 91 97
e 91 100
e 92 93
e 92 95
e 92 100
e 94 97
e 94 98
e 95 98
e 95 99
e 97 99
e 98 99
e 98 100
e 99 100
